74 61 93 81 95 14 26 35 57 20 21 45 15 0 33 12 86 84 17 27 31 56 67 6 16 69 91 40 19 38 52 28 2 10 4 41 1 9 8 90 18 24 96 80 11 7 77 53 73 58 30 46 42 65 59 87 43 3 62 51 37 88 39 34 78 75 49 44 66 83 54 72 99 29 79 5 92 55 63 70 94 23 85 98 32 13 76 50 48 36 25 97 60 64 89 68 82 22 71 47